Set parameter Username
Academic license - for non-commercial use only - expires 2024-10-29
Set parameter LazyConstraints to value 1
Set parameter TimeLimit to value 600
Gurobi Optimizer version 10.0.0 build v10.0.0rc2 (linux64)

CPU model: AMD FX(tm)-4300 Quad-Core Processor, instruction set [SSE2|AVX]
Thread count: 2 physical cores, 4 logical processors, using up to 4 threads

Optimize a model with 10250 rows, 2500 columns and 12458 nonzeros
Model fingerprint: 0xf9fd8aba
Variable types: 0 continuous, 2500 integer (2500 binary)
Coefficient statistics:
  Matrix range     [1e+00, 1e+00]
  Objective range  [1e+00, 1e+01]
  Bounds range     [1e+00, 1e+00]
  RHS range        [1e+00, 1e+00]
Presolve removed 10000 rows and 0 columns
Presolve time: 0.01s
Presolved: 250 rows, 2500 columns, 2458 nonzeros
Variable types: 0 continuous, 2500 integer (2500 binary)

Root simplex log...

Iteration    Objective       Primal Inf.    Dual Inf.      Time
       0    0.0000000e+00   2.520112e+02   0.000000e+00      5s
     236    3.0100000e+02   0.000000e+00   0.000000e+00      5s

Root relaxation: objective 3.010000e+02, 236 iterations, 0.00 seconds (0.00 work units)

    Nodes    |    Current Node    |     Objective Bounds      |     Work
 Expl Unexpl |  Obj  Depth IntInf | Incumbent    BestBd   Gap | It/Node Time

     0     0  301.00000    0    -          -  301.00000      -     -    5s
     0     0  301.00000    0    -          -  301.00000      -     -    6s
     0     0  301.00000    0    4          -  301.00000      -     -    6s
     0     0  423.00000    0    -          -  423.00000      -     -   18s
H    0     0                    1266.0000000  423.50000  66.5%     -   19s
     0     0  423.50000    0    5 1266.00000  423.50000  66.5%     -   19s
     0     0  485.00000    0    - 1266.00000  485.00000  61.7%     -   28s
     0     0  485.00000    0    - 1266.00000  485.00000  61.7%     -   29s
     0     0  485.00000    0    - 1266.00000  485.00000  61.7%     -   30s
     0     0  485.00000    0    - 1266.00000  485.00000  61.7%     -   31s
     0     0  485.00000    0    - 1266.00000  485.00000  61.7%     -   32s
     0     0  485.00000    0    - 1266.00000  485.00000  61.7%     -   32s
H    0     0                    1112.0000000  485.00000  56.4%     -   33s
     0     0  485.00000    0    4 1112.00000  485.00000  56.4%     -   33s
     0     0  485.00000    0    - 1112.00000  485.00000  56.4%     -   50s
H    0     0                     911.0000000  485.00000  46.8%     -   51s
     0     0  485.00000    0    3  911.00000  485.00000  46.8%     -   51s
     0     0  485.00000    0    3  911.00000  485.00000  46.8%     -   63s
     0     0  485.00000    0    6  911.00000  485.00000  46.8%     -   65s
H    0     0                     857.0000000  485.00000  43.4%     -   68s
     0     2  485.00000    0    6  857.00000  485.00000  43.4%     -   71s
H   11     4                     854.0000000  485.00000  43.2%   4.7   98s
    22     4  485.00000    2    4  854.00000  485.00000  43.2%   5.5  121s
    34     9  485.00000    5    -  854.00000  485.00000  43.2%   5.3  147s
H   38    12                     844.0000000  485.00000  42.5%   5.6  155s
    52     7  485.00000    6    -  844.00000  485.00000  42.5%   6.0  181s
    74     1  485.00000    6    -  844.00000  485.00000  42.5%   7.4  224s
   109     3  485.00000    6    -  844.00000  485.00000  42.5%   6.8  292s
H  140     0                     841.0000000  485.00000  42.3%   6.5  353s
   180    25  485.00000    6    -  841.00000  485.00000  42.3%   6.3  431s
   199     7  485.00000    6    -  841.00000  485.00000  42.3%   6.2  466s
   242    25  485.00000    7    -  841.00000  485.00000  42.3%   6.7  544s
H  261    41                     839.0000000  485.00000  42.2%   6.6  585s

Cutting planes:
  User: 4
  Gomory: 1
  MIR: 1
  Lazy constraints: 127

Explored 276 nodes (2511 simplex iterations) in 609.81 seconds (0.31 work units)
Thread count was 4 (of 4 available processors)

Solution count 8: 839 841 844 ... 1266

Time limit reached
Best objective 8.390000000000e+02, best bound 4.850000000000e+02, gap 42.1931%

User-callback calls 1092, time in user-callback 609.17 sec
